language Essence 1.3

letting bot_end be [1611, 500, 1364, 1026, 111, 98, 179, 221, 53, 93, 1208, 66; int(1..12)]
letting bot_start be [441, 1610, 431, 30, 1582, 1270, 1464, 1542, 1585, 1484, 1, 1423; int(1..12)]
letting buffer_col be 2
letting buffer_row be 2
letting corridor_size be 1
letting n_shelves_col be 9
letting n_shelves_row be 24
letting shelf_col_size be 2
letting shelf_row_size be 1
